(set-logic UF)
(declare-sort Loc 0)
(declare-sort SetLoc 0)
(declare-sort FldBool 0)
(declare-sort FldLoc 0)
(declare-fun null$0 () Loc)
(declare-fun read$0 (FldLoc Loc) Loc)
(declare-fun ep$0 (FldLoc SetLoc Loc) Loc)
(declare-fun emptyset$0 () SetLoc)
(declare-fun setenum$0 (Loc) SetLoc)
(declare-fun union$0 (SetLoc SetLoc) SetLoc)
(declare-fun intersection$0 (SetLoc SetLoc) SetLoc)
(declare-fun setminus$0 (SetLoc SetLoc) SetLoc)
(declare-fun Btwn$0 (FldLoc Loc Loc Loc) Bool)
(declare-fun in$0 (Loc SetLoc) Bool)
(declare-fun Alloc$0 () SetLoc)
(declare-fun FP$0 () SetLoc)
(declare-fun FP_Caller$0 () SetLoc)
(declare-fun FP_Caller_1$0 () SetLoc)
(declare-fun lseg_domain$0 (FldLoc Loc Loc) SetLoc)
(declare-fun lseg_struct$0 (SetLoc FldLoc Loc Loc) Bool)
(declare-fun lst$0 () Loc)
(declare-fun next$0 () FldLoc)
(declare-fun sk_?X$0 () SetLoc)
(assert (not (= (forall ((l1 Loc)) (and (or (Btwn$0 next$0 lst$0 l1 null$0) (and (or (= null$0 l1) (not (Btwn$0 next$0 lst$0 l1 null$0))) (not (in$0 l1 (lseg_domain$0 next$0 lst$0 null$0))))) (or (in$0 l1 (lseg_domain$0 next$0 lst$0 null$0)) (and (or (= null$0 l1) (not (Btwn$0 next$0 lst$0 l1 null$0))) (not (in$0 l1 (lseg_domain$0 next$0 lst$0 null$0))))) (or (not (= null$0 l1)) (and (or (= null$0 l1) (not (Btwn$0 next$0 lst$0 l1 null$0))) (not (in$0 l1 (lseg_domain$0 next$0 lst$0 null$0))))))) (and (forall ((BOUND_VARIABLE_582 Loc)) (or (Btwn$0 next$0 lst$0 BOUND_VARIABLE_582 null$0) (and (or (= null$0 BOUND_VARIABLE_582) (not (Btwn$0 next$0 lst$0 BOUND_VARIABLE_582 null$0))) (not (in$0 BOUND_VARIABLE_582 (lseg_domain$0 next$0 lst$0 null$0)))))) (forall ((BOUND_VARIABLE_594 Loc)) (or (in$0 BOUND_VARIABLE_594 (lseg_domain$0 next$0 lst$0 null$0)) (and (or (= null$0 BOUND_VARIABLE_594) (not (Btwn$0 next$0 lst$0 BOUND_VARIABLE_594 null$0))) (not (in$0 BOUND_VARIABLE_594 (lseg_domain$0 next$0 lst$0 null$0)))))) (not (in$0 null$0 (lseg_domain$0 next$0 lst$0 null$0)))))))
(assert (= (forall ((l1 Loc)) (and (or (Btwn$0 next$0 lst$0 l1 null$0) (and (or (= null$0 l1) (not (Btwn$0 next$0 lst$0 l1 null$0))) (not (in$0 l1 (lseg_domain$0 next$0 lst$0 null$0))))) (or (in$0 l1 (lseg_domain$0 next$0 lst$0 null$0)) (and (or (= null$0 l1) (not (Btwn$0 next$0 lst$0 l1 null$0))) (not (in$0 l1 (lseg_domain$0 next$0 lst$0 null$0))))) (or (not (= null$0 l1)) (and (or (= null$0 l1) (not (Btwn$0 next$0 lst$0 l1 null$0))) (not (in$0 l1 (lseg_domain$0 next$0 lst$0 null$0))))))) (and (forall ((BOUND_VARIABLE_582 Loc)) (or (Btwn$0 next$0 lst$0 BOUND_VARIABLE_582 null$0) (and (or (= null$0 BOUND_VARIABLE_582) (not (Btwn$0 next$0 lst$0 BOUND_VARIABLE_582 null$0))) (not (in$0 BOUND_VARIABLE_582 (lseg_domain$0 next$0 lst$0 null$0)))))) (forall ((BOUND_VARIABLE_594 Loc)) (or (in$0 BOUND_VARIABLE_594 (lseg_domain$0 next$0 lst$0 null$0)) (and (or (= null$0 BOUND_VARIABLE_594) (not (Btwn$0 next$0 lst$0 BOUND_VARIABLE_594 null$0))) (not (in$0 BOUND_VARIABLE_594 (lseg_domain$0 next$0 lst$0 null$0)))))) (forall ((BOUND_VARIABLE_606 Loc)) (or (not (= null$0 BOUND_VARIABLE_606)) (and (or (= null$0 BOUND_VARIABLE_606) (not (Btwn$0 next$0 lst$0 BOUND_VARIABLE_606 null$0))) (not (in$0 BOUND_VARIABLE_606 (lseg_domain$0 next$0 lst$0 null$0)))))))))
(assert (= (and (forall ((BOUND_VARIABLE_582 Loc)) (or (Btwn$0 next$0 lst$0 BOUND_VARIABLE_582 null$0) (and (or (= null$0 BOUND_VARIABLE_582) (not (Btwn$0 next$0 lst$0 BOUND_VARIABLE_582 null$0))) (not (in$0 BOUND_VARIABLE_582 (lseg_domain$0 next$0 lst$0 null$0)))))) (forall ((BOUND_VARIABLE_594 Loc)) (or (in$0 BOUND_VARIABLE_594 (lseg_domain$0 next$0 lst$0 null$0)) (and (or (= null$0 BOUND_VARIABLE_594) (not (Btwn$0 next$0 lst$0 BOUND_VARIABLE_594 null$0))) (not (in$0 BOUND_VARIABLE_594 (lseg_domain$0 next$0 lst$0 null$0)))))) (forall ((BOUND_VARIABLE_606 Loc)) (or (not (= null$0 BOUND_VARIABLE_606)) (and (or (= null$0 BOUND_VARIABLE_606) (not (Btwn$0 next$0 lst$0 BOUND_VARIABLE_606 null$0))) (not (in$0 BOUND_VARIABLE_606 (lseg_domain$0 next$0 lst$0 null$0))))))) (and (forall ((BOUND_VARIABLE_582 Loc)) (or (Btwn$0 next$0 lst$0 BOUND_VARIABLE_582 null$0) (and (or (= null$0 BOUND_VARIABLE_582) (not (Btwn$0 next$0 lst$0 BOUND_VARIABLE_582 null$0))) (not (in$0 BOUND_VARIABLE_582 (lseg_domain$0 next$0 lst$0 null$0)))))) (forall ((BOUND_VARIABLE_594 Loc)) (or (in$0 BOUND_VARIABLE_594 (lseg_domain$0 next$0 lst$0 null$0)) (and (or (= null$0 BOUND_VARIABLE_594) (not (Btwn$0 next$0 lst$0 BOUND_VARIABLE_594 null$0))) (not (in$0 BOUND_VARIABLE_594 (lseg_domain$0 next$0 lst$0 null$0)))))) (not (in$0 null$0 (lseg_domain$0 next$0 lst$0 null$0))))))
(check-sat)
(exit)
